decision_x1=[0,4];
decision_x2=[0,4];
decision_x3=[0,4];
decision_x4=[0,4];
decision_x5=[0,4];
decision_x6=[0,4];
decision_x7=[0,4];
decision_x8=[0,4];
decision_x9=[0,4];
decision_x10=[0,4];
random_y1=[0,4];
random_y2=[0,4];
constraint_x3_x1=[
0,1,1.4|
0,2,4.6|
0,3,2.1|
0,4,4.5|
1,0,3.1|
1,2,4.9|
1,3,8.5|
1,4,2.4|
2,0,9.1|
2,1,2.8|
2,3,5.8|
2,4,2.5|
3,0,8.6|
3,1,8.5|
3,2,0.52|
3,4,2.9|
4,0,0.68|
4,1,5.2|
4,2,8.2|
4,3,5.2|
];
constraint_x3_x2=[
0,1,7.9|
0,2,6.2|
0,3,7.4|
0,4,1.1|
1,0,3.2|
1,2,2.2|
1,3,3.8|
1,4,9.7|
2,0,2.2|
2,1,6.4|
2,3,8.3|
2,4,9.5|
3,0,0.86|
3,1,3.5|
3,2,3.5|
3,4,7.1|
4,0,3.4|
4,1,6.2|
4,2,3.5|
4,3,8.5|
];
constraint_x4_x3=[
0,1,0.71|
0,2,0.48|
0,3,0.61|
0,4,3.5|
1,0,1.8|
1,2,0.6|
1,3,0.046|
1,4,7.9|
2,0,6.4|
2,1,4.6|
2,3,3.9|
2,4,4.4|
3,0,7.2|
3,1,9.9|
3,2,5.6|
3,4,2.9|
4,0,3.6|
4,1,1.6|
4,2,7.2|
4,3,7.1|
];
constraint_x5_x1=[
0,1,2|
0,2,3|
0,3,7.1|
0,4,6.5|
1,0,7.2|
1,2,6.6|
1,3,9|
1,4,9.1|
2,0,4.6|
2,1,0.29|
2,3,5.4|
2,4,0.34|
3,0,3.9|
3,1,7.8|
3,2,2|
3,4,1.2|
4,0,2.2|
4,1,5.7|
4,2,7|
4,3,6.4|
];
constraint_x5_x4=[
0,1,8.7|
0,2,8.1|
0,3,3.1|
0,4,0.67|
1,0,3.6|
1,2,3.1|
1,3,0.71|
1,4,8.1|
2,0,9.7|
2,1,4|
2,3,0.94|
2,4,5.5|
3,0,2.2|
3,1,6.7|
3,2,9.2|
3,4,1.7|
4,0,9|
4,1,2.6|
4,2,8.1|
4,3,1.5|
];
constraint_x6_x2=[
0,1,7.4|
0,2,2.7|
0,3,8.9|
0,4,6|
1,0,3.5|
1,2,9.4|
1,3,6.5|
1,4,0.29|
2,0,1|
2,1,8.7|
2,3,2|
2,4,2.7|
3,0,0.036|
3,1,7|
3,2,4.8|
3,4,6.2|
4,0,3.1|
4,1,6.5|
4,2,4.8|
4,3,4.2|
];
constraint_x6_x5=[
0,1,8.6|
0,2,1.7|
0,3,8.7|
0,4,3.8|
1,0,1.5|
1,2,4.9|
1,3,2.1|
1,4,1.3|
2,0,3.6|
2,1,0.53|
2,3,5.4|
2,4,6.7|
3,0,8.1|
3,1,7.9|
3,2,2|
3,4,1.2|
4,0,3.7|
4,1,3.5|
4,2,4.1|
4,3,9.9|
];
constraint_x7_x2=[
0,1,5.9|
0,2,0.92|
0,3,5.2|
0,4,1.9|
1,0,2.7|
1,2,2.8|
1,3,8.5|
1,4,5.8|
2,0,1.1|
2,1,9.6|
2,3,1.1|
2,4,9.9|
3,0,6.2|
3,1,5.8|
3,2,6.5|
3,4,1.2|
4,0,9.1|
4,1,5.1|
4,2,2|
4,3,5.4|
];
constraint_x7_x3=[
0,1,7.3|
0,2,8.6|
0,3,4.2|
0,4,0.74|
1,0,3.3|
1,2,0.0087|
1,3,8.3|
1,4,1.9|
2,0,3|
2,1,8.8|
2,3,7.2|
2,4,6.1|
3,0,1.6|
3,1,6.1|
3,2,2.8|
3,4,0.14|
4,0,2.6|
4,1,8.9|
4,2,5.9|
4,3,5.4|
];
constraint_x8_x2=[
0,1,6.5|
0,2,1.7|
0,3,2.9|
0,4,6.7|
1,0,7.1|
1,2,5.7|
1,3,8.4|
1,4,2.4|
2,0,0.42|
2,1,2.9|
2,3,3.8|
2,4,3.4|
3,0,3.6|
3,1,5.8|
3,2,7.4|
3,4,8.2|
4,0,5|
4,1,3.1|
4,2,3.9|
4,3,2.8|
];
constraint_x8_x3=[
0,1,3.9|
0,2,3.1|
0,3,0.61|
0,4,8.9|
1,0,8.6|
1,2,5.1|
1,3,7.2|
1,4,8.7|
2,0,9.1|
2,1,2.9|
2,3,3.4|
2,4,7.2|
3,0,6.1|
3,1,5.3|
3,2,8.5|
3,4,9.3|
4,0,9.1|
4,1,0.59|
4,2,1.7|
4,3,7.9|
];
constraint_x8_x4=[
0,1,4.7|
0,2,4.1|
0,3,5.3|
0,4,6.7|
1,0,9.1|
1,2,4.3|
1,3,1.1|
1,4,1.1|
2,0,2.7|
2,1,3.5|
2,3,7.5|
2,4,2.6|
3,0,3.7|
3,1,6.1|
3,2,8.9|
3,4,0.89|
4,0,3.8|
4,1,2.7|
4,2,1.1|
4,3,0.47|
];
constraint_x8_x5=[
0,1,6|
0,2,4.8|
0,3,9.8|
0,4,2.9|
1,0,8.9|
1,2,4|
1,3,9.3|
1,4,0.93|
2,0,2.1|
2,1,7.4|
2,3,8.8|
2,4,8.4|
3,0,4.6|
3,1,2.2|
3,2,8.7|
3,4,1.9|
4,0,0.91|
4,1,5.6|
4,2,8.5|
4,3,6.6|
];
constraint_x8_x6=[
0,1,9.6|
0,2,3.8|
0,3,4.6|
0,4,6.1|
1,0,1.1|
1,2,6|
1,3,0.19|
1,4,3.6|
2,0,1|
2,1,7.1|
2,3,6.8|
2,4,1.3|
3,0,1.9|
3,1,5.4|
3,2,9.7|
3,4,8.3|
4,0,3.4|
4,1,5.8|
4,2,4.9|
4,3,8.4|
];
constraint_x9_x1=[
0,1,2.9|
0,2,0.72|
0,3,3.9|
0,4,9|
1,0,3.6|
1,2,9.3|
1,3,8.2|
1,4,5|
2,0,0.65|
2,1,5.8|
2,3,2.9|
2,4,3.6|
3,0,8|
3,1,5|
3,2,1.4|
3,4,7.4|
4,0,3.8|
4,1,0.96|
4,2,3.9|
4,3,1.8|
];
constraint_x9_x2=[
0,1,5.1|
0,2,6.1|
0,3,4.8|
0,4,5.9|
1,0,7.8|
1,2,9.7|
1,3,3.1|
1,4,7.1|
2,0,1.7|
2,1,9|
2,3,8|
2,4,9.8|
3,0,6.3|
3,1,1.3|
3,2,4.9|
3,4,2.2|
4,0,8.3|
4,1,0.39|
4,2,4.3|
4,3,8.3|
];
constraint_x9_x3=[
0,1,6.9|
0,2,9.5|
0,3,7.1|
0,4,0.26|
1,0,2.1|
1,2,7.7|
1,3,7.5|
1,4,7.6|
2,0,2.2|
2,1,2|
2,3,7.8|
2,4,3.9|
3,0,3.7|
3,1,8.5|
3,2,1.4|
3,4,9.5|
4,0,5.5|
4,1,0.95|
4,2,8.4|
4,3,8.2|
];
constraint_x9_x4=[
0,1,2.5|
0,2,4|
0,3,7.3|
0,4,5.7|
1,0,10|
1,2,6.9|
1,3,7|
1,4,3.3|
2,0,7.7|
2,1,1.7|
2,3,4.9|
2,4,7.9|
3,0,5.9|
3,1,8.5|
3,2,4.4|
3,4,7.9|
4,0,9.3|
4,1,8.5|
4,2,7.6|
4,3,1.3|
];
constraint_x9_x6=[
0,1,4.4|
0,2,8.3|
0,3,1.3|
0,4,0.96|
1,0,9.8|
1,2,4.3|
1,3,4.1|
1,4,3.1|
2,0,8.3|
2,1,0.28|
2,3,4.8|
2,4,1.7|
3,0,1.2|
3,1,0.79|
3,2,7.9|
3,4,5.1|
4,0,2.9|
4,1,0.08|
4,2,1.6|
4,3,7.9|
];
constraint_x10_x3=[
0,1,4.8|
0,2,3.4|
0,3,5.2|
0,4,1.4|
1,0,9|
1,2,6.7|
1,3,4.6|
1,4,3.8|
2,0,0.93|
2,1,7.2|
2,3,7.9|
2,4,8.3|
3,0,9.2|
3,1,6.5|
3,2,0.43|
3,4,4.4|
4,0,4.9|
4,1,6.6|
4,2,6.9|
4,3,3.2|
];
constraint_x10_x6=[
0,1,9.5|
0,2,5.9|
0,3,0.26|
0,4,2.2|
1,0,0.076|
1,2,3.7|
1,3,3.4|
1,4,7.7|
2,0,7.2|
2,1,9.6|
2,3,9.6|
2,4,6.5|
3,0,6.3|
3,1,8.3|
3,2,8.7|
3,4,7|
4,0,0.18|
4,1,2.1|
4,2,9.5|
4,3,6.1|
];
constraint_x10_x7=[
0,1,0.39|
0,2,1.7|
0,3,0.8|
0,4,4.9|
1,0,7.6|
1,2,6.8|
1,3,8.4|
1,4,8.5|
2,0,4.1|
2,1,9.4|
2,3,9.2|
2,4,1.5|
3,0,2.2|
3,1,4.2|
3,2,9.2|
3,4,1.1|
4,0,3.3|
4,1,5.7|
4,2,3.4|
4,3,6.6|
];
constraint_x10_x8=[
0,1,8.8|
0,2,0.98|
0,3,7|
0,4,5.5|
1,0,9.7|
1,2,3.3|
1,3,3|
1,4,1.5|
2,0,6.9|
2,1,7.7|
2,3,1.2|
2,4,8.5|
3,0,1.1|
3,1,1|
3,2,1|
3,4,0.67|
4,0,2.2|
4,1,1.2|
4,2,8.9|
4,3,4.6|
];
constraint_x1_y1=[
0,0,1.6|
0,1,4.2|
0,2,4.5|
0,3,3.2|
0,4,8.2|
1,0,5.9|
1,1,0.6|
1,2,6.4|
1,3,2.6|
1,4,2.5|
2,0,7.3|
2,1,2.8|
2,2,2.5|
2,3,2.3|
2,4,4.6|
3,0,8.3|
3,1,4.9|
3,2,4.3|
3,3,1.5|
3,4,9.6|
4,0,9.3|
4,1,8.7|
4,2,4.6|
4,3,3.8|
4,4,6.4|
];
constraint_x2_y2=[
0,0,4.9|
0,1,4.6|
0,2,9.1|
0,3,6.2|
0,4,9.5|
1,0,2.7|
1,1,0.085|
1,2,7.1|
1,3,3.1|
1,4,8.2|
2,0,2.2|
2,1,7.5|
2,2,3.4|
2,3,7|
2,4,0.95|
3,0,5.2|
3,1,8.3|
3,2,1|
3,3,3.6|
3,4,6.9|
4,0,4.8|
4,1,7.9|
4,2,3.1|
4,3,8.8|
4,4,6.3|
];
initial_distribution_y1=[0.049,0.26,0.08,0.22,0.38];
initial_distribution_y2=[0.38,0.26,0.022,0.084,0.26];
transition_y1=[
0.16,0.037,0.21,0.28,0.31|
0.26,0.28,0.28,0.018,0.16|
0.2,0.41,0.03,0.3,0.064|
0.2,0.095,0.24,0.41,0.055|
0.022,0.31,0.12,0.043,0.5|
];
transition_y2=[
0.24,0.13,0.17,0.15,0.32|
0.12,0.3,0.18,0.06,0.34|
0.0058,0.33,0.098,0.34,0.23|
0.19,0.11,0.32,0.16,0.22|
0.044,0.074,0.26,0.37,0.26|
];
